TOUR_SECTION
109
133
168
22
52
116
57
105
30
34
38
98
82
169
187
182
8
104
89
59
78
1
200
121
125
6
178
67
180
161
23
128
47
21
83
13
155
159
119
46
10
93
142
45
138
158
176
48
41
81
183
66
56
103
39
120
42
197
118
63
85
184
114
131
84
44
151
32
2
90
69
150
25
149
108
171
137
24
193
31
18
167
141
50
7
112
95
94
195
113
61
100
16
99
194
73
51
33
170
107
117
58
175
185
123
135
191
60
5
74
64
126
65
14
173
55
122
106
196
49
186
12
190
129
88
174
54
43
20
147
157
29
71
199
127
68
15
179
40
91
188
192
19
27
72
163
76
162
160
4
146
153
156
139
124
111
28
132
136
92
110
130
3
79
115
37
9
166
36
75
145
134
144
77
26
177
148
189
17
143
154
164
97
96
35
181
172
80
140
102
198
87
101
152
53
11
70
62
86
165
-1
EOF